\ENCODING=ISO-8859-1
\Problem name: JuliaExportProblem

Minimize
 obj1: 0.1 x1 + 0.5 x2 - 3 ya - 5 yb
Subject To
 b#0:  x1 + x2 <= 200
 c#1:  x1 - 0.5 x2 >= 0
 d#2:  ya <= 8
 _e#3: 2 yb <= 24
 f#4:  3 ya + 2 yb <= 36
 g#5:  - 0.046 x1 - 0.184 x2 + ya + yb <= 0
 i1#6: x1 >= 0.7
 i2#7: x1 <= 296.4
 i3#8: x2 >= 0
 i4#9: x2 <= 49.6
End
